p td 22 123
2 1
3 2
3 1
4 1
4 3
4 2
5 4
6 3
6 2
6 4
6 5
7 6
7 2
7 4
8 1
8 3
8 5
9 6
9 8
9 3
9 2
9 5
9 7
10 2
10 4
10 9
10 1
10 7
10 3
10 6
10 5
11 3
11 1
11 7
11 2
11 9
11 10
11 6
12 3
12 8
12 5
12 7
12 6
12 9
12 1
13 11
13 3
13 2
13 8
14 1
14 7
14 4
14 5
14 2
14 10
14 9
15 5
15 11
15 10
15 2
15 6
16 6
16 1
16 13
16 3
16 4
17 11
17 2
17 1
17 9
17 6
17 8
17 3
17 16
17 13
17 10
18 12
18 9
18 1
18 5
18 4
18 17
18 13
18 3
19 13
19 10
19 15
19 17
19 4
19 9
19 1
19 18
19 8
19 3
19 6
20 11
20 5
20 18
20 17
20 10
20 3
20 16
20 8
20 13
20 1
21 11
21 4
21 20
21 5
21 13
21 10
21 8
21 6
22 10
22 5
22 13
22 7
22 9
22 1
22 11
22 15
22 4
22 21
